70	100	100	100
8	9	6
4	4	8
8	6	9
5	7	2
7	5	5
7	2	4
4	6	2
9	3	4
6	5	1
1	2	1
6	7	6
7	9	7
1	7	9
3	6	5
3	4	9
7	5	6
4	2	7
2	1	6
8	5	9
9	9	7
6	6	3
4	9	2
6	4	1
2	5	2
2	5	7
5	1	6
9	5	3
5	9	4
1	2	8
3	5	9
8	1	6
8	6	2
6	8	1
7	5	3
1	4	6
1	9	8
7	3	4
8	7	3
5	3	7
3	1	8
2	1	4
4	7	9
1	9	4
4	1	5
2	5	2
8	7	6
8	4	4
3	2	1
8	8	7
7	6	1
6	2	1
4	3	1
8	2	4
1	5	2
2	3	4
2	8	2
5	8	5
4	9	6
1	1	2
8	3	7
5	5	8
6	5	5
6	9	3
1	8	8
1	9	3
5	9	3
8	1	4
1	1	5
9	1	6
9	3	9
